peakDumbCharging = 18500; 
Machine = anon_enum(16); 
machineSpeed = [3700,3700,3700,3700,3700,3700,3700,3700,3700,3700,3700,3700,3700,3700,3700,3700]; 
machineLoad = [3700,3700,3700,3700,3700,3700,3700,3700,3700,3700,3700,3700,3700,3700,3700,3700]; 
Car = anon_enum(17); 
demandCar = [18080,13640,6560,1280,2440,8960,11160,5760,37320,1520,280,6520,6720,40,7360,22440,11160]; 
arrivalCar = [70,68,62,61,59,59,58,56,52,50,48,48,47,47,43,42,32]; 
departureCar = [76,75,65,63,61,64,64,58,64,52,57,53,50,48,47,51,36]; 
